00000000000000000000000000000000000000000000000000,10101001000101000000100010001000000000000111100111,00000000101010000010000101010000010100000000010000,00000000000000000000000000000000000000000000000000,00000000000000000000000000000000000000000000000000,01010110010000111101011000100111101011111000001000,00000000000000000000000000000000000000000000000000,00000000000000000000000000000000000000000000000000,00000000000000000000000000000000000000000000000000,00000000000000000000000000000000000000000000000000,[],[1, 0, 8, 0, 8, 0, 0, 1, 0, 0, 0, 1, 0, 1, 0, 0, 0, 0, 0, 0, 8, 0, 0, 0, 8, 0, 0, 0, 5, 0, 0, 0, 0, 0, 0, 0, 0, 0, 0, 0, 0, 1, 5, 8, 5, 0, 0, 8, 5, 1],[0, 0, 0, 0, 0, 0, 0, 0, 6, 0, 2, 0, 7, 0, 0, 0, 0, 0, 2, 0, 0, 0, 0, 6, 0, 7, 0, 7, 0, 0, 0, 0, 0, 7, 0, 6, 0, 0, 0, 0, 0, 0, 0, 0, 0, 6, 0, 0, 0, 0],[],[],[0, 4, 0, 9, 0, 4, 9, 0, 0, 3, 0, 0, 0, 0, 4, 10, 3, 9, 0, 3, 0, 9, 3, 0, 0, 0, 9, 0, 0, 4, 10, 10, 10, 0, 3, 0, 10, 3, 9, 4, 3, 0, 0, 0, 0, 0, 3, 0, 0, 0],[],[],[],[][0, 13, 7, 49, 11, 41],[10, 18],[46, 16, 19, 40, 9, 34, 22, 37],[29, 5, 1, 39, 14],[28, 48, 42, 44],[35, 23, 8, 45],[25, 12, 33, 27],[2, 20, 4, 47, 24, 43],[38, 21, 26, 3, 6, 17],[31, 30, 32, 15, 36]
00000000000000000000000000000000000000000000000000,10101001000101000000100010001000000000000111100111,00000000101010000010000101010000010100000000010000,00000000000000000000000000000000000000000000000000,00000000000000000000000000000000000000000000000000,01010110010000111101011000100111101011111000001000,00000000000000000000000000000000000000000000000000,00000000000000000000000000000000000000000000000000,00000000000000000000000000000000000000000000000000,00000000000000000000000000000000000000000000000000,[],[7, 0, 7, 0, 8, 0, 0, 7, 0, 0, 0, 3, 0, 7, 0, 0, 0, 0, 0, 0, 7, 0, 0, 0, 3, 0, 0, 0, 8, 0, 0, 0, 0, 0, 0, 0, 0, 0, 0, 0, 0, 3, 3, 8, 8, 0, 0, 8, 3, 8],[0, 0, 0, 0, 0, 0, 0, 0, 2, 0, 5, 0, 5, 0, 0, 0, 0, 0, 5, 0, 0, 0, 0, 2, 0, 4, 0, 4, 0, 0, 0, 0, 0, 4, 0, 2, 0, 0, 0, 0, 0, 0, 0, 0, 0, 5, 0, 0, 0, 0],[],[],[0, 1, 0, 9, 0, 1, 1, 0, 0, 10, 0, 0, 0, 0, 9, 10, 9, 1, 0, 6, 0, 9, 10, 0, 0, 0, 6, 0, 0, 9, 1, 9, 1, 0, 6, 0, 10, 1, 10, 9, 6, 0, 0, 0, 0, 0, 10, 0, 0, 0],[],[],[],[][6, 30, 1, 5, 32, 17, 37],[23, 35, 8],[41, 24, 48, 42, 11],[25, 33, 27],[10, 45, 12, 18],[40, 26, 19, 34],[2, 0, 20, 13, 7],[4, 44, 28, 49, 43, 47],[14, 31, 39, 16, 3, 21, 29],[9, 36, 46, 15, 38, 22]
00000000000000000000000000000000000000000000000000,10101001000101000000100010001000000000000111100111,00000000101010000010000101010000010100000000010000,00000000000000000000000000000000000000000000000000,00000000000000000000000000000000000000000000000000,01010110010000111101011000100111101011111000001000,00000000000000000000000000000000000000000000000000,00000000000000000000000000000000000000000000000000,00000000000000000000000000000000000000000000000000,00000000000000000000000000000000000000000000000000,[],[2, 0, 1, 0, 9, 0, 0, 9, 0, 0, 0, 9, 0, 2, 0, 0, 0, 0, 0, 0, 2, 0, 0, 0, 9, 0, 0, 0, 9, 0, 0, 0, 0, 0, 0, 0, 0, 0, 0, 0, 0, 2, 9, 2, 1, 0, 0, 9, 1, 1],[0, 0, 0, 0, 0, 0, 0, 0, 4, 0, 4, 0, 7, 0, 0, 0, 0, 0, 7, 0, 0, 0, 0, 6, 0, 6, 0, 4, 0, 0, 0, 0, 0, 4, 0, 6, 0, 0, 0, 0, 0, 0, 0, 0, 0, 6, 0, 0, 0, 0],[],[],[0, 3, 0, 10, 0, 3, 8, 0, 0, 10, 0, 0, 0, 0, 3, 8, 10, 10, 0, 3, 0, 10, 5, 0, 0, 0, 8, 0, 0, 8, 10, 3, 5, 0, 10, 0, 3, 5, 8, 8, 8, 0, 0, 0, 0, 0, 3, 0, 0, 0],[],[],[],[][48, 44, 2, 49],[43, 20, 13, 0, 41],[1, 19, 31, 14, 5, 36, 46],[10, 33, 27, 8],[32, 22, 37],[23, 35, 45, 25],[18, 12],[29, 26, 15, 38, 39, 40, 6],[47, 24, 42, 7, 4, 11, 28],[3, 21, 17, 30, 16, 9, 34]
00000000000000000000000000000000000000000000000000,10101001000101000000100010001000000000000111100111,00000000101010000010000101010000010100000000010000,00000000000000000000000000000000000000000000000000,00000000000000000000000000000000000000000000000000,01010110010000111101011000100111101011111000001000,00000000000000000000000000000000000000000000000000,00000000000000000000000000000000000000000000000000,00000000000000000000000000000000000000000000000000,00000000000000000000000000000000000000000000000000,[],[1, 0, 10, 0, 1, 0, 0, 10, 0, 0, 0, 1, 0, 5, 0, 0, 0, 0, 0, 0, 10, 0, 0, 0, 5, 0, 0, 0, 5, 0, 0, 0, 0, 0, 0, 0, 0, 0, 0, 0, 0, 10, 1, 1, 10, 0, 0, 10, 10, 1],[0, 0, 0, 0, 0, 0, 0, 0, 2, 0, 9, 0, 7, 0, 0, 0, 0, 0, 9, 0, 0, 0, 0, 9, 0, 7, 0, 2, 0, 0, 0, 0, 0, 2, 0, 9, 0, 0, 0, 0, 0, 0, 0, 0, 0, 7, 0, 0, 0, 0],[],[],[0, 4, 0, 8, 0, 8, 4, 0, 0, 8, 0, 0, 0, 0, 3, 8, 3, 3, 0, 8, 0, 3, 4, 0, 0, 0, 3, 0, 0, 3, 4, 8, 4, 0, 6, 0, 3, 8, 6, 6, 6, 0, 0, 0, 0, 0, 8, 0, 0, 0],[],[],[],[][43, 4, 0, 42, 49, 11],[8, 33, 27],[36, 21, 26, 16, 14, 29, 17],[30, 1, 32, 22, 6],[13, 28, 24],[34, 39, 38, 40],[12, 25, 45],[46, 37, 15, 5, 3, 19, 9, 31],[35, 10, 23, 18],[7, 20, 47, 48, 2, 41, 44]
00000000000000000000000000000000000000000000000000,10101001000101000000100010001000000000000111100111,00000000101010000010000101010000010100000000010000,00000000000000000000000000000000000000000000000000,00000000000000000000000000000000000000000000000000,01010110010000111101011000100111101011111000001000,00000000000000000000000000000000000000000000000000,00000000000000000000000000000000000000000000000000,00000000000000000000000000000000000000000000000000,00000000000000000000000000000000000000000000000000,[],[8, 0, 9, 0, 2, 0, 0, 8, 0, 0, 0, 2, 0, 9, 0, 0, 0, 0, 0, 0, 2, 0, 0, 0, 8, 0, 0, 0, 8, 0, 0, 0, 0, 0, 0, 0, 0, 0, 0, 0, 0, 8, 8, 8, 2, 0, 0, 9, 9, 9],[0, 0, 0, 0, 0, 0, 0, 0, 6, 0, 6, 0, 6, 0, 0, 0, 0, 0, 6, 0, 0, 0, 0, 5, 0, 6, 0, 6, 0, 0, 0, 0, 0, 4, 0, 5, 0, 0, 0, 0, 0, 0, 0, 0, 0, 4, 0, 0, 0, 0],[],[],[0, 1, 0, 10, 0, 3, 1, 0, 0, 3, 0, 0, 0, 0, 3, 3, 7, 10, 0, 1, 0, 7, 1, 0, 0, 0, 7, 0, 0, 1, 10, 10, 1, 0, 10, 0, 1, 3, 10, 7, 3, 0, 0, 0, 0, 0, 10, 0, 0, 0],[],[],[],[][6, 36, 19, 1, 32, 22, 29],[4, 44, 20, 11],[9, 14, 5, 37, 15, 40],[33, 45],[23, 35],[12, 10, 8, 25, 18, 27],[39, 16, 26, 21],[41, 7, 24, 28, 0, 42, 43],[13, 48, 2, 49, 47],[31, 34, 30, 17, 38, 46, 3]
00000000000000000000000000000000000000000000000000,10101001000101000000100010001000000000000111100111,00000000101010000010000101010000010100000000010000,00000000000000000000000000000000000000000000000000,00000000000000000000000000000000000000000000000000,01010110010000111101011000100111101011111000001000,00000000000000000000000000000000000000000000000000,00000000000000000000000000000000000000000000000000,00000000000000000000000000000000000000000000000000,00000000000000000000000000000000000000000000000000,[],[3, 0, 3, 0, 4, 0, 0, 4, 0, 0, 0, 3, 0, 1, 0, 0, 0, 0, 0, 0, 3, 0, 0, 0, 3, 0, 0, 0, 1, 0, 0, 0, 0, 0, 0, 0, 0, 0, 0, 0, 0, 4, 1, 1, 1, 0, 0, 1, 4, 1],[0, 0, 0, 0, 0, 0, 0, 0, 7, 0, 5, 0, 6, 0, 0, 0, 0, 0, 6, 0, 0, 0, 0, 5, 0, 6, 0, 7, 0, 0, 0, 0, 0, 6, 0, 7, 0, 0, 0, 0, 0, 0, 0, 0, 0, 7, 0, 0, 0, 0],[],[],[0, 9, 0, 10, 0, 10, 2, 0, 0, 8, 0, 0, 0, 0, 8, 2, 10, 10, 0, 9, 0, 8, 8, 0, 0, 0, 9, 0, 0, 8, 10, 9, 10, 0, 10, 0, 9, 2, 2, 2, 10, 0, 0, 0, 0, 0, 9, 0, 0, 0],[],[],[],[][28, 44, 49, 43, 42, 13, 47],[15, 38, 37, 6, 39],[0, 2, 24, 11, 20],[48, 41, 4, 7],[23, 10],[33, 18, 12, 25],[27, 35, 45, 8],[22, 29, 21, 14, 9],[36, 1, 46, 26, 19, 31],[30, 17, 16, 3, 5, 32, 40, 34]
00000000000000000000000000000000000000000000000000,10101001000101000000100010001000000000000111100111,00000000101010000010000101010000010100000000010000,00000000000000000000000000000000000000000000000000,00000000000000000000000000000000000000000000000000,01010110010000111101011000100111101011111000001000,00000000000000000000000000000000000000000000000000,00000000000000000000000000000000000000000000000000,00000000000000000000000000000000000000000000000000,00000000000000000000000000000000000000000000000000,[],[7, 0, 10, 0, 2, 0, 0, 7, 0, 0, 0, 10, 0, 2, 0, 0, 0, 0, 0, 0, 7, 0, 0, 0, 10, 0, 0, 0, 10, 0, 0, 0, 0, 0, 0, 0, 0, 0, 0, 0, 0, 2, 7, 2, 10, 0, 0, 7, 10, 7],[0, 0, 0, 0, 0, 0, 0, 0, 4, 0, 5, 0, 5, 0, 0, 0, 0, 0, 4, 0, 0, 0, 0, 5, 0, 4, 0, 6, 0, 0, 0, 0, 0, 5, 0, 6, 0, 0, 0, 0, 0, 0, 0, 0, 0, 4, 0, 0, 0, 0],[],[],[0, 8, 0, 9, 0, 1, 1, 0, 0, 1, 0, 0, 0, 0, 9, 8, 9, 3, 0, 9, 0, 8, 1, 0, 0, 0, 1, 0, 0, 3, 3, 8, 9, 0, 9, 0, 3, 1, 8, 1, 8, 0, 0, 0, 0, 0, 3, 0, 0, 0],[],[],[],[][37, 5, 26, 22, 6, 39, 9],[43, 41, 13, 4],[46, 29, 17, 30, 36],[18, 45, 25, 8],[12, 33, 23, 10],[35, 27],[7, 0, 47, 20, 49, 42],[31, 40, 1, 21, 38, 15],[32, 3, 16, 19, 14, 34],[28, 11, 48, 2, 44, 24]
00000000000000000000000000000000000000000000000000,10101001000101000000100010001000000000000111100111,00000000101010000010000101010000010100000000010000,00000000000000000000000000000000000000000000000000,00000000000000000000000000000000000000000000000000,01010110010000111101011000100111101011111000001000,00000000000000000000000000000000000000000000000000,00000000000000000000000000000000000000000000000000,00000000000000000000000000000000000000000000000000,00000000000000000000000000000000000000000000000000,[],[2, 0, 3, 0, 3, 0, 0, 8, 0, 0, 0, 3, 0, 3, 0, 0, 0, 0, 0, 0, 2, 0, 0, 0, 3, 0, 0, 0, 8, 0, 0, 0, 0, 0, 0, 0, 0, 0, 0, 0, 0, 8, 2, 2, 8, 0, 0, 2, 8, 8],[0, 0, 0, 0, 0, 0, 0, 0, 4, 0, 6, 0, 6, 0, 0, 0, 0, 0, 6, 0, 0, 0, 0, 4, 0, 5, 0, 5, 0, 0, 0, 0, 0, 4, 0, 4, 0, 0, 0, 0, 0, 0, 0, 0, 0, 5, 0, 0, 0, 0],[],[],[0, 10, 0, 9, 0, 10, 1, 0, 0, 7, 0, 0, 0, 0, 7, 1, 10, 9, 0, 10, 0, 1, 7, 0, 0, 0, 9, 0, 0, 10, 1, 1, 9, 0, 10, 0, 1, 10, 10, 9, 9, 0, 0, 0, 0, 0, 7, 0, 0, 0],[],[],[],[][30, 21, 6, 31, 36, 15],[47, 0, 20, 43, 42],[2, 11, 24, 13, 4],[8, 23, 35, 33],[25, 45, 27],[18, 12, 10],[9, 14, 46, 22],[7, 41, 49, 44, 28, 48],[17, 3, 26, 32, 39, 40],[38, 37, 34, 1, 29, 5, 19, 16]
00000000000000000000000000000000000000000000000000,10101001000101000000100010001000000000000111100111,00000000101010000010000101010000010100000000010000,00000000000000000000000000000000000000000000000000,00000000000000000000000000000000000000000000000000,01010110010000111101011000100111101011111000001000,00000000000000000000000000000000000000000000000000,00000000000000000000000000000000000000000000000000,00000000000000000000000000000000000000000000000000,00000000000000000000000000000000000000000000000000,[],[8, 0, 2, 0, 8, 0, 0, 8, 0, 0, 0, 7, 0, 7, 0, 0, 0, 0, 0, 0, 8, 0, 0, 0, 2, 0, 0, 0, 8, 0, 0, 0, 0, 0, 0, 0, 0, 0, 0, 0, 0, 2, 7, 8, 2, 0, 0, 7, 8, 7],[0, 0, 0, 0, 0, 0, 0, 0, 10, 0, 10, 0, 6, 0, 0, 0, 0, 0, 10, 0, 0, 0, 0, 6, 0, 6, 0, 10, 0, 0, 0, 0, 0, 10, 0, 6, 0, 0, 0, 0, 0, 0, 0, 0, 0, 4, 0, 0, 0, 0],[],[],[0, 3, 0, 3, 0, 3, 3, 0, 0, 3, 0, 0, 0, 0, 1, 3, 3, 5, 0, 1, 0, 1, 9, 0, 0, 0, 5, 0, 0, 3, 1, 9, 1, 0, 5, 0, 9, 9, 1, 9, 9, 0, 0, 0, 0, 0, 5, 0, 0, 0],[],[],[],[][21, 38, 30, 32, 14, 19],[2, 44, 41, 24],[9, 16, 6, 15, 5, 29, 3, 1],[45],[34, 46, 17, 26],[25, 12, 35, 23],[47, 49, 11, 13, 42],[20, 43, 48, 28, 0, 4, 7],[37, 22, 40, 39, 31, 36],[33, 18, 10, 8, 27]
00000000000000000000000000000000000000000000000000,10101001000101000000100010001000000000000111100111,00000000101010000010000101010000010100000000010000,00000000000000000000000000000000000000000000000000,00000000000000000000000000000000000000000000000000,01010110010000111101011000100111101011111000001000,00000000000000000000000000000000000000000000000000,00000000000000000000000000000000000000000000000000,00000000000000000000000000000000000000000000000000,00000000000000000000000000000000000000000000000000,[],[2, 0, 2, 0, 8, 0, 0, 1, 0, 0, 0, 8, 0, 8, 0, 0, 0, 0, 0, 0, 8, 0, 0, 0, 1, 0, 0, 0, 8, 0, 0, 0, 0, 0, 0, 0, 0, 0, 0, 0, 0, 8, 8, 2, 2, 0, 0, 8, 1, 1],[0, 0, 0, 0, 0, 0, 0, 0, 7, 0, 4, 0, 5, 0, 0, 0, 0, 0, 4, 0, 0, 0, 0, 5, 0, 5, 0, 7, 0, 0, 0, 0, 0, 7, 0, 5, 0, 0, 0, 0, 0, 0, 0, 0, 0, 4, 0, 0, 0, 0],[],[],[0, 9, 0, 6, 0, 6, 6, 0, 0, 9, 0, 0, 0, 0, 10, 10, 10, 3, 0, 10, 0, 6, 9, 0, 0, 0, 6, 0, 0, 6, 10, 10, 3, 0, 9, 0, 9, 3, 10, 10, 9, 0, 0, 0, 0, 0, 3, 0, 0, 0],[],[],[],[][49, 24, 7, 48],[43, 2, 0, 44],[32, 37, 17, 46],[18, 10, 45],[25, 23, 35, 12],[6, 5, 26, 3, 21, 29],[27, 33, 8],[41, 11, 47, 13, 4, 42, 28, 20],[22, 34, 9, 40, 36, 1],[16, 19, 15, 30, 38, 14, 39, 31]
00000000000000000000000000000000000000000000000000,10101001000101000000100010001000000000000111100111,00000000101010000010000101010000010100000000010000,00000000000000000000000000000000000000000000000000,00000000000000000000000000000000000000000000000000,01010110010000111101011000100111101011111000001000,00000000000000000000000000000000000000000000000000,00000000000000000000000000000000000000000000000000,00000000000000000000000000000000000000000000000000,00000000000000000000000000000000000000000000000000,[],[9, 0, 5, 0, 3, 0, 0, 3, 0, 0, 0, 5, 0, 9, 0, 0, 0, 0, 0, 0, 3, 0, 0, 0, 9, 0, 0, 0, 9, 0, 0, 0, 0, 0, 0, 0, 0, 0, 0, 0, 0, 3, 9, 3, 5, 0, 0, 3, 9, 3],[0, 0, 0, 0, 0, 0, 0, 0, 2, 0, 7, 0, 6, 0, 0, 0, 0, 0, 7, 0, 0, 0, 0, 6, 0, 7, 0, 6, 0, 0, 0, 0, 0, 6, 0, 7, 0, 0, 0, 0, 0, 0, 0, 0, 0, 2, 0, 0, 0, 0],[],[],[0, 8, 0, 10, 0, 10, 8, 0, 0, 4, 0, 0, 0, 0, 4, 4, 1, 1, 0, 8, 0, 1, 8, 0, 0, 0, 1, 0, 0, 4, 8, 4, 1, 0, 1, 0, 10, 4, 8, 10, 10, 0, 0, 0, 0, 0, 8, 0, 0, 0],[],[],[],[][34, 32, 21, 17, 26, 16],[8, 45],[20, 43, 49, 4, 7, 41, 47],[37, 14, 9, 31, 29, 15],[2, 11, 44],[12, 33, 27, 23],[18, 10, 35, 25],[19, 6, 22, 30, 1, 38, 46],[24, 13, 28, 42, 0, 48],[39, 3, 5, 40, 36]
00000000000000000000000000000000000000000000000000,10101001000101000000100010001000000000000111100111,00000000101010000010000101010000010100000000010000,00000000000000000000000000000000000000000000000000,00000000000000000000000000000000000000000000000000,01010110010000111101011000100111101011111000001000,00000000000000000000000000000000000000000000000000,00000000000000000000000000000000000000000000000000,00000000000000000000000000000000000000000000000000,00000000000000000000000000000000000000000000000000,[],[6, 0, 6, 0, 4, 0, 0, 10, 0, 0, 0, 4, 0, 4, 0, 0, 0, 0, 0, 0, 6, 0, 0, 0, 10, 0, 0, 0, 10, 0, 0, 0, 0, 0, 0, 0, 0, 0, 0, 0, 0, 10, 10, 10, 10, 0, 0, 4, 6, 6],[0, 0, 0, 0, 0, 0, 0, 0, 1, 0, 1, 0, 5, 0, 0, 0, 0, 0, 5, 0, 0, 0, 0, 5, 0, 1, 0, 1, 0, 0, 0, 0, 0, 7, 0, 5, 0, 0, 0, 0, 0, 0, 0, 0, 0, 1, 0, 0, 0, 0],[],[],[0, 3, 0, 2, 0, 9, 9, 0, 0, 9, 0, 0, 0, 0, 3, 9, 3, 8, 0, 3, 0, 8, 3, 0, 0, 0, 3, 0, 0, 9, 2, 2, 2, 0, 9, 0, 3, 2, 8, 8, 8, 0, 0, 0, 0, 0, 8, 0, 0, 0],[],[],[],[][45, 8, 25, 10, 27],[31, 3, 30, 32, 37],[22, 14, 19, 16, 26, 36, 1],[47, 11, 4, 13],[18, 12, 23, 35],[0, 48, 20, 49, 2],[33],[39, 46, 40, 38, 21, 17],[29, 6, 34, 5, 15, 9],[41, 28, 44, 7, 24, 43, 42]
00000000000000000000000000000000000000000000000000,10101001000101000000100010001000000000000111100111,00000000101010000010000101010000010100000000010000,00000000000000000000000000000000000000000000000000,00000000000000000000000000000000000000000000000000,01010110010000111101011000100111101011111000001000,00000000000000000000000000000000000000000000000000,00000000000000000000000000000000000000000000000000,00000000000000000000000000000000000000000000000000,00000000000000000000000000000000000000000000000000,[],[3, 0, 3, 0, 3, 0, 0, 5, 0, 0, 0, 5, 0, 8, 0, 0, 0, 0, 0, 0, 3, 0, 0, 0, 8, 0, 0, 0, 8, 0, 0, 0, 0, 0, 0, 0, 0, 0, 0, 0, 0, 8, 8, 3, 8, 0, 0, 3, 5, 3],[0, 0, 0, 0, 0, 0, 0, 0, 2, 0, 9, 0, 2, 0, 0, 0, 0, 0, 9, 0, 0, 0, 0, 9, 0, 2, 0, 2, 0, 0, 0, 0, 0, 7, 0, 7, 0, 0, 0, 0, 0, 0, 0, 0, 0, 9, 0, 0, 0, 0],[],[],[0, 1, 0, 6, 0, 4, 4, 0, 0, 1, 0, 0, 0, 0, 10, 1, 10, 6, 0, 1, 0, 1, 6, 0, 0, 0, 6, 0, 0, 6, 4, 1, 4, 0, 4, 0, 10, 10, 10, 1, 10, 0, 0, 0, 0, 0, 10, 0, 0, 0],[],[],[],[][30, 21, 3, 17, 19],[43, 20, 48, 0, 24],[47, 4, 7, 11, 49, 28, 13],[35, 10, 12],[41, 2, 42, 44],[27, 18, 23, 25, 33],[8, 45],[46, 31, 39, 9, 40, 6, 29],[36, 1, 26, 37, 38],[14, 32, 15, 22, 5, 34, 16]
00000000000000000000000000000000000000000000000000,10101001000101000000100010001000000000000111100111,00000000101010000010000101010000010100000000010000,00000000000000000000000000000000000000000000000000,00000000000000000000000000000000000000000000000000,01010110010000111101011000100111101011111000001000,00000000000000000000000000000000000000000000000000,00000000000000000000000000000000000000000000000000,00000000000000000000000000000000000000000000000000,00000000000000000000000000000000000000000000000000,[],[10, 0, 2, 0, 8, 0, 0, 2, 0, 0, 0, 10, 0, 2, 0, 0, 0, 0, 0, 0, 2, 0, 0, 0, 8, 0, 0, 0, 2, 0, 0, 0, 0, 0, 0, 0, 0, 0, 0, 0, 0, 8, 10, 10, 8, 0, 0, 10, 8, 10],[0, 0, 0, 0, 0, 0, 0, 0, 1, 0, 7, 0, 1, 0, 0, 0, 0, 0, 1, 0, 0, 0, 0, 5, 0, 1, 0, 7, 0, 0, 0, 0, 0, 1, 0, 1, 0, 0, 0, 0, 0, 0, 0, 0, 0, 7, 0, 0, 0, 0],[],[],[0, 3, 0, 6, 0, 6, 6, 0, 0, 4, 0, 0, 0, 0, 3, 9, 4, 6, 0, 3, 0, 3, 9, 0, 0, 0, 4, 0, 0, 4, 9, 4, 9, 0, 3, 0, 3, 6, 4, 9, 4, 0, 0, 0, 0, 0, 9, 0, 0, 0],[],[],[],[][33, 12, 18, 25, 35, 8],[13, 20, 28, 7, 2],[21, 1, 36, 14, 19, 34],[29, 9, 31, 16, 26, 38, 40],[23],[6, 37, 5, 3, 17],[27, 10, 45],[48, 4, 41, 44, 24],[46, 30, 22, 39, 15, 32],[0, 43, 49, 11, 42, 47]
00000000000000000000000000000000000000000000000000,10101001000101000000100010001000000000000111100111,00000000101010000010000101010000010100000000010000,00000000000000000000000000000000000000000000000000,00000000000000000000000000000000000000000000000000,01010110010000111101011000100111101011111000001000,00000000000000000000000000000000000000000000000000,00000000000000000000000000000000000000000000000000,00000000000000000000000000000000000000000000000000,00000000000000000000000000000000000000000000000000,[],[8, 0, 8, 0, 8, 0, 0, 2, 0, 0, 0, 8, 0, 8, 0, 0, 0, 0, 0, 0, 4, 0, 0, 0, 2, 0, 0, 0, 8, 0, 0, 0, 0, 0, 0, 0, 0, 0, 0, 0, 0, 2, 4, 4, 2, 0, 0, 8, 4, 4],[0, 0, 0, 0, 0, 0, 0, 0, 7, 0, 1, 0, 7, 0, 0, 0, 0, 0, 5, 0, 0, 0, 0, 5, 0, 1, 0, 7, 0, 0, 0, 0, 0, 7, 0, 7, 0, 0, 0, 0, 0, 0, 0, 0, 0, 5, 0, 0, 0, 0],[],[],[0, 10, 0, 9, 0, 6, 3, 0, 0, 10, 0, 0, 0, 0, 9, 3, 3, 9, 0, 9, 0, 3, 9, 0, 0, 0, 6, 0, 0, 10, 10, 3, 3, 0, 9, 0, 10, 6, 6, 3, 10, 0, 0, 0, 0, 0, 6, 0, 0, 0],[],[],[],[][10, 25],[24, 41, 7, 44],[6, 31, 39, 15, 32, 21, 16],[42, 49, 43, 20, 48],[23, 45, 18],[26, 37, 5, 38, 46],[8, 35, 33, 12, 27],[47, 2, 11, 0, 4, 28, 13],[3, 19, 34, 14, 22, 17],[9, 40, 36, 29, 30, 1]
00000000000000000000000000000000000000000000000000,10101001000101000000100010001000000000000111100111,00000000101010000010000101010000010100000000010000,00000000000000000000000000000000000000000000000000,00000000000000000000000000000000000000000000000000,01010110010000111101011000100111101011111000001000,00000000000000000000000000000000000000000000000000,00000000000000000000000000000000000000000000000000,00000000000000000000000000000000000000000000000000,00000000000000000000000000000000000000000000000000,[],[9, 0, 6, 0, 9, 0, 0, 6, 0, 0, 0, 9, 0, 1, 0, 0, 0, 0, 0, 0, 9, 0, 0, 0, 1, 0, 0, 0, 1, 0, 0, 0, 0, 0, 0, 0, 0, 0, 0, 0, 0, 6, 1, 1, 1, 0, 0, 9, 9, 1],[0, 0, 0, 0, 0, 0, 0, 0, 7, 0, 4, 0, 5, 0, 0, 0, 0, 0, 5, 0, 0, 0, 0, 4, 0, 4, 0, 7, 0, 0, 0, 0, 0, 5, 0, 5, 0, 0, 0, 0, 0, 0, 0, 0, 0, 4, 0, 0, 0, 0],[],[],[0, 3, 0, 8, 0, 3, 3, 0, 0, 8, 0, 0, 0, 0, 8, 2, 8, 2, 0, 3, 0, 3, 10, 0, 0, 0, 10, 0, 0, 3, 8, 3, 10, 0, 10, 0, 2, 8, 10, 3, 10, 0, 0, 0, 0, 0, 8, 0, 0, 0],[],[],[],[][49, 43, 13, 42, 44, 24, 28],[36, 15, 17],[21, 29, 5, 1, 31, 39, 6, 19],[23, 25, 45, 10],[35, 12, 33, 18],[7, 41, 2],[27, 8],[46, 16, 14, 9, 3, 30, 37],[47, 0, 4, 48, 20, 11],[40, 22, 38, 26, 34, 32]
00000000000000000000000000000000000000000000000000,10101001000101000000100010001000000000000111100111,00000000101010000010000101010000010100000000010000,00000000000000000000000000000000000000000000000000,00000000000000000000000000000000000000000000000000,01010110010000111101011000100111101011111000001000,00000000000000000000000000000000000000000000000000,00000000000000000000000000000000000000000000000000,00000000000000000000000000000000000000000000000000,00000000000000000000000000000000000000000000000000,[],[4, 0, 3, 0, 3, 0, 0, 6, 0, 0, 0, 6, 0, 3, 0, 0, 0, 0, 0, 0, 6, 0, 0, 0, 3, 0, 0, 0, 4, 0, 0, 0, 0, 0, 0, 0, 0, 0, 0, 0, 0, 4, 4, 6, 3, 0, 0, 3, 6, 4],[0, 0, 0, 0, 0, 0, 0, 0, 5, 0, 9, 0, 7, 0, 0, 0, 0, 0, 9, 0, 0, 0, 0, 7, 0, 5, 0, 9, 0, 0, 0, 0, 0, 7, 0, 9, 0, 0, 0, 0, 0, 0, 0, 0, 0, 5, 0, 0, 0, 0],[],[],[0, 2, 0, 1, 0, 10, 2, 0, 0, 8, 0, 0, 0, 0, 8, 8, 2, 1, 0, 8, 0, 2, 2, 0, 0, 0, 2, 0, 0, 10, 10, 10, 1, 0, 1, 0, 8, 1, 10, 1, 10, 0, 0, 0, 0, 0, 8, 0, 0, 0],[],[],[],[][32, 34, 39, 3, 37, 17],[6, 16, 26, 21, 22, 1],[47, 2, 44, 4, 13, 24],[42, 41, 49, 28, 0],[25, 8, 45],[48, 7, 20, 43, 11],[12, 33, 23],[19, 14, 9, 46, 36, 15],[18, 27, 10, 35],[5, 29, 30, 38, 31, 40]
00000000000000000000000000000000000000000000000000,10101001000101000000100010001000000000000111100111,00000000101010000010000101010000010100000000010000,00000000000000000000000000000000000000000000000000,00000000000000000000000000000000000000000000000000,01010110010000111101011000100111101011111000001000,00000000000000000000000000000000000000000000000000,00000000000000000000000000000000000000000000000000,00000000000000000000000000000000000000000000000000,00000000000000000000000000000000000000000000000000,[],[10, 0, 10, 0, 7, 0, 0, 10, 0, 0, 0, 6, 0, 6, 0, 0, 0, 0, 0, 0, 6, 0, 0, 0, 6, 0, 0, 0, 10, 0, 0, 0, 0, 0, 0, 0, 0, 0, 0, 0, 0, 10, 10, 7, 7, 0, 0, 10, 7, 10],[0, 0, 0, 0, 0, 0, 0, 0, 1, 0, 5, 0, 5, 0, 0, 0, 0, 0, 1, 0, 0, 0, 0, 1, 0, 5, 0, 5, 0, 0, 0, 0, 0, 2, 0, 1, 0, 0, 0, 0, 0, 0, 0, 0, 0, 2, 0, 0, 0, 0],[],[],[0, 9, 0, 9, 0, 8, 8, 0, 0, 9, 0, 0, 0, 0, 8, 4, 9, 3, 0, 3, 0, 3, 4, 0, 0, 0, 4, 0, 0, 8, 9, 9, 8, 0, 3, 0, 9, 3, 8, 8, 4, 0, 0, 0, 0, 0, 3, 0, 0, 0],[],[],[],[][18, 23, 35, 8],[33, 45],[46, 34, 19, 21, 37, 17],[40, 26, 22, 15],[10, 25, 27, 12],[20, 11, 13, 24],[44, 4, 43, 48],[29, 32, 14, 39, 6, 5, 38],[36, 3, 16, 9, 31, 1, 30],[41, 2, 47, 0, 42, 7, 28, 49]
00000000000000000000000000000000000000000000000000,10101001000101000000100010001000000000000111100111,00000000101010000010000101010000010100000000010000,00000000000000000000000000000000000000000000000000,00000000000000000000000000000000000000000000000000,01010110010000111101011000100111101011111000001000,00000000000000000000000000000000000000000000000000,00000000000000000000000000000000000000000000000000,00000000000000000000000000000000000000000000000000,00000000000000000000000000000000000000000000000000,[],[8, 0, 5, 0, 8, 0, 0, 8, 0, 0, 0, 1, 0, 5, 0, 0, 0, 0, 0, 0, 8, 0, 0, 0, 1, 0, 0, 0, 8, 0, 0, 0, 0, 0, 0, 0, 0, 0, 0, 0, 0, 8, 1, 1, 1, 0, 0, 5, 8, 8],[0, 0, 0, 0, 0, 0, 0, 0, 6, 0, 7, 0, 6, 0, 0, 0, 0, 0, 7, 0, 0, 0, 0, 7, 0, 6, 0, 6, 0, 0, 0, 0, 0, 4, 0, 6, 0, 0, 0, 0, 0, 0, 0, 0, 0, 7, 0, 0, 0, 0],[],[],[0, 2, 0, 9, 0, 9, 10, 0, 0, 10, 0, 0, 0, 0, 3, 3, 10, 9, 0, 10, 0, 3, 2, 0, 0, 0, 10, 0, 0, 9, 9, 10, 2, 0, 3, 0, 2, 10, 3, 3, 9, 0, 0, 0, 0, 0, 10, 0, 0, 0],[],[],[],[][43, 11, 24, 44, 42],[1, 22, 32, 36],[21, 38, 15, 39, 14, 34],[33],[13, 2, 47],[12, 35, 25, 8, 27],[10, 18, 23, 45],[28, 20, 41, 49, 4, 0, 48, 7],[17, 3, 30, 29, 5, 40],[6, 37, 26, 46, 16, 19, 9, 31]
00000000000000000000000000000000000000000000000000,10101001000101000000100010001000000000000111100111,00000000101010000010000101010000010100000000010000,00000000000000000000000000000000000000000000000000,00000000000000000000000000000000000000000000000000,01010110010000111101011000100111101011111000001000,00000000000000000000000000000000000000000000000000,00000000000000000000000000000000000000000000000000,00000000000000000000000000000000000000000000000000,00000000000000000000000000000000000000000000000000,[],[6, 0, 1, 0, 1, 0, 0, 6, 0, 0, 0, 1, 0, 6, 0, 0, 0, 0, 0, 0, 6, 0, 0, 0, 9, 0, 0, 0, 9, 0, 0, 0, 0, 0, 0, 0, 0, 0, 0, 0, 0, 9, 9, 9, 1, 0, 0, 1, 9, 6],[0, 0, 0, 0, 0, 0, 0, 0, 4, 0, 4, 0, 4, 0, 0, 0, 0, 0, 4, 0, 0, 0, 0, 7, 0, 5, 0, 4, 0, 0, 0, 0, 0, 7, 0, 5, 0, 0, 0, 0, 0, 0, 0, 0, 0, 5, 0, 0, 0, 0],[],[],[0, 8, 0, 10, 0, 10, 3, 0, 0, 10, 0, 0, 0, 0, 10, 2, 3, 3, 0, 8, 0, 2, 8, 0, 0, 0, 3, 0, 0, 2, 10, 8, 8, 0, 3, 0, 8, 10, 2, 2, 8, 0, 0, 0, 0, 0, 2, 0, 0, 0],[],[],[],[][11, 44, 4, 2, 47],[46, 39, 38, 21, 29, 15],[26, 16, 17, 34, 6],[12, 10, 27, 18, 8],[45, 35, 25],[7, 20, 49, 0, 13],[23, 33],[19, 31, 40, 36, 32, 22, 1],[28, 48, 42, 43, 24, 41],[14, 9, 5, 30, 37, 3]
